Geographic Exponential Decay
40 25 5 242 191 7 156 231 208 74 0 241 316 87 248 185 105 93 210 102 197 79 18 116 148 98 292 94 284 262 216 253 149 214 9 21 204 14 175 84 249
p edge 320 1253
e 0 270 43.0
e 0 40 74.0
e 0 233 94.0
e 0 280 97.0
e 0 169 48.0
e 0 214 36.0
e 0 294 15.0
e 0 258 100.0
e 0 180 61.0
e 0 250 91.0
e 0 230 88.0
e 0 123 5.0
e 0 109 83.0
e 0 138 61.0
e 0 256 20.0
e 0 90 10.0
e 0 295 60.0
e 0 220 87.0
e 0 3 75.0
e 0 281 27.0
e 0 207 17.0
e 0 245 84.0
e 0 259 93.0
e 0 149 22.0
e 0 274 11.0
e 0 81 37.0
e 0 235 53.0
e 1 137 3.0
e 1 130 4.0
e 2 255 1.0
e 3 235 1.0
e 4 287 1.0
e 5 236 99.0
e 5 141 87.0
e 5 43 50.0
e 5 26 85.0
e 5 67 85.0
e 5 219 4.0
e 5 180 70.0
e 5 312 72.0
e 5 302 43.0
e 5 300 8.0
e 5 259 36.0
e 5 151 66.0
e 5 161 43.0
e 5 118 76.0
e 5 237 58.0
e 5 285 24.0
e 5 128 70.0
e 5 154 44.0
e 5 205 1.0
e 5 34 17.0
e 5 240 97.0
e 5 130 90.0
e 5 168 91.0
e 5 195 61.0
e 5 254 38.0
e 5 315 83.0
e 5 255 14.0
e 6 35 1.0
e 6 147 6.0
e 7 47 43.0
e 7 318 88.0
e 7 79 21.0
e 7 34 21.0
e 7 160 35.0
e 7 5 22.0
e 7 36 3.0
e 7 184 68.0
e 7 295 28.0
e 7 176 17.0
e 7 149 68.0
e 7 236 93.0
e 7 57 23.0
e 7 66 92.0
e 7 94 72.0
e 7 6 57.0
e 7 138 10.0
e 7 41 73.0
e 7 196 1.0
e 7 95 11.0
e 7 250 93.0
e 7 120 53.0
e 7 281 26.0
e 7 269 78.0
e 7 39 16.0
e 7 265 83.0
e 7 133 86.0
e 8 137 1.0
e 9 6 30.0
e 9 19 22.0
e 9 305 34.0
e 9 180 57.0
e 9 116 34.0
e 9 60 49.0
e 9 117 77.0
e 9 172 89.0
e 9 282 27.0
e 9 318 33.0
e 9 44 55.0
e 9 10 34.0
e 9 103 52.0
e 9 204 28.0
e 9 293 36.0
e 9 185 27.0
e 9 18 38.0
e 9 50 25.0
e 9 286 41.0
e 9 273 88.0
e 9 51 61.0
e 9 275 86.0
e 9 80 65.0
e 9 229 54.0
e 9 254 98.0
e 9 49 100.0
e 9 212 40.0
e 10 168 1.0
e 11 41 1.0
e 12 306 3.0
e 12 33 1.0
e 13 50 1.0
e 13 153 1.0
e 14 47 43.0
e 14 117 24.0
e 14 245 20.0
e 14 213 80.0
e 14 20 53.0
e 14 243 5.0
e 14 83 46.0
e 14 313 88.0
e 14 85 44.0
e 14 80 67.0
e 14 74 28.0
e 14 171 74.0
e 14 220 95.0
e 14 142 1.0
e 14 77 66.0
e 14 15 1.0
e 14 102 38.0
e 14 153 75.0
e 14 178 10.0
e 14 175 59.0
e 14 224 33.0
e 14 231 43.0
e 14 59 24.0
e 14 273 38.0
e 14 26 61.0
e 14 311 68.0
e 14 203 57.0
e 16 269 1.0
e 17 54 2.0
e 18 26 38.0
e 18 3 11.0
e 18 172 52.0
e 18 283 10.0
e 18 110 8.0
e 18 16 5.0
e 18 258 52.0
e 18 66 72.0
e 18 167 45.0
e 18 115 50.0
e 18 318 63.0
e 18 185 37.0
e 18 203 37.0
e 18 284 95.0
e 18 27 95.0
e 18 92 3.0
e 18 30 83.0
e 18 300 73.0
e 18 219 55.0
e 18 111 13.0
e 18 209 61.0
e 18 85 70.0
e 18 152 46.0
e 18 137 58.0
e 18 296 29.0
e 18 48 64.0
e 19 166 1.0
e 21 247 79.0
e 21 202 82.0
e 21 121 6.0
e 21 240 27.0
e 21 232 94.0
e 21 228 70.0
e 21 63 40.0
e 21 261 24.0
e 21 13 21.0
e 21 221 48.0
e 21 196 13.0
e 21 114 98.0
e 21 124 42.0
e 21 4 45.0
e 21 64 51.0
e 21 207 36.0
e 21 278 81.0
e 21 8 1.0
e 21 74 77.0
e 21 233 22.0
e 21 12 78.0
e 21 317 10.0
e 21 136 55.0
e 21 22 8.0
e 21 29 91.0
e 21 17 53.0
e 21 101 36.0
e 23 58 8.0
e 23 88 12.0
e 23 31 8.0
e 23 206 2.0
e 24 242 76.0
e 24 72 3.0
e 25 267 63.0
e 25 29 76.0
e 25 273 92.0
e 25 129 96.0
e 25 198 68.0
e 25 242 52.0
e 25 304 33.0
e 25 196 4.0
e 25 58 72.0
e 25 250 17.0
e 25 177 28.0
e 25 120 91.0
e 25 197 11.0
e 25 178 92.0
e 25 276 59.0
e 25 206 72.0
e 25 67 1.0
e 25 216 83.0
e 25 247 29.0
e 25 66 73.0
e 25 315 73.0
e 25 251 47.0
e 25 296 12.0
e 25 189 32.0
e 25 163 57.0
e 25 110 95.0
e 25 133 97.0
e 28 247 5.0
e 28 126 1.0
e 31 154 8.0
e 31 181 1.0
e 31 228 2.0
e 32 190 5.0
e 32 247 2.0
e 36 166 4.0
e 37 114 2.0
e 37 20 5.0
e 37 242 80.0
e 37 257 9.0
e 38 152 2.0
e 42 272 1.0
e 44 87 46.0
e 45 260 7.0
e 45 133 3.0
e 46 221 2.0
e 51 82 17.0
e 51 72 4.0
e 51 239 1.0
e 52 48 4.0
e 52 54 3.0
e 53 206 5.0
e 55 253 90.0
e 56 283 1.0
e 61 105 54.0
e 62 227 3.0
e 65 206 3.0
e 65 83 2.0
e 68 318 1.0
e 69 215 4.0
e 69 265 2.0
e 70 107 2.0
e 70 206 6.0
e 71 214 34.0
e 71 215 2.0
e 73 203 2.0
e 73 56 4.0
e 74 300 79.0
e 74 278 15.0
e 74 177 72.0
e 74 67 13.0
e 74 244 23.0
e 74 261 67.0
e 74 185 88.0
e 74 96 97.0
e 74 176 96.0
e 74 287 100.0
e 74 167 44.0
e 74 174 49.0
e 74 305 15.0
e 74 68 8.0
e 74 59 3.0
e 74 105 51.0
e 74 306 11.0
e 74 84 56.0
e 74 289 87.0
e 74 66 29.0
e 74 216 57.0
e 74 45 57.0
e 74 6 14.0
e 74 150 50.0
e 74 121 99.0
e 75 290 1.0
e 76 22 1.0
e 78 177 1.0
e 79 1 30.0
e 79 275 99.0
e 79 8 94.0
e 79 112 18.0
e 79 90 10.0
e 79 156 74.0
e 79 81 84.0
e 79 300 46.0
e 79 30 15.0
e 79 118 22.0
e 79 259 1.0
e 79 154 39.0
e 79 53 68.0
e 79 210 29.0
e 79 258 70.0
e 79 197 68.0
e 79 32 36.0
e 79 152 21.0
e 79 254 9.0
e 79 312 23.0
e 79 293 75.0
e 79 212 94.0
e 79 16 69.0
e 79 35 23.0
e 79 61 69.0
e 79 113 36.0
e 80 153 14.0
e 80 101 14.0
e 80 180 24.0
e 80 36 7.0
e 80 58 16.0
e 82 62 1.0
e 82 308 15.0
e 82 276 23.0
e 82 185 89.0
e 82 24 9.0
e 82 155 17.0
e 84 108 83.0
e 84 150 93.0
e 84 263 100.0
e 84 109 75.0
e 84 225 7.0
e 84 76 76.0
e 84 291 87.0
e 84 155 72.0
e 84 254 25.0
e 84 55 45.0
e 84 162 31.0
e 84 283 90.0
e 84 11 39.0
e 84 269 43.0
e 84 165 11.0
e 84 78 25.0
e 84 157 55.0
e 84 220 34.0
e 84 114 24.0
e 84 134 33.0
e 84 216 66.0
e 84 200 56.0
e 84 246 14.0
e 84 145 90.0
e 84 111 89.0
e 84 128 44.0
e 86 27 1.0
e 87 130 50.0
e 87 289 17.0
e 87 311 34.0
e 87 251 26.0
e 87 122 85.0
e 87 266 47.0
e 87 19 17.0
e 87 308 57.0
e 87 145 90.0
e 87 317 69.0
e 87 300 82.0
e 87 189 62.0
e 87 218 32.0
e 87 157 59.0
e 87 169 53.0
e 87 293 83.0
e 87 74 55.0
e 87 26 73.0
e 87 318 53.0
e 87 194 91.0
e 87 14 59.0
e 87 161 31.0
e 87 28 42.0
e 87 239 38.0
e 87 205 19.0
e 87 290 68.0
e 88 160 3.0
e 88 311 4.0
e 88 165 9.0
e 89 132 5.0
e 89 133 5.0
e 89 151 8.0
e 89 234 4.0
e 91 185 90.0
e 92 223 11.0
e 93 3 36.0
e 93 153 75.0
e 93 85 69.0
e 93 293 61.0
e 93 283 97.0
e 93 4 94.0
e 93 170 69.0
e 93 47 70.0
e 93 49 65.0
e 93 181 31.0
e 93 206 56.0
e 93 50 30.0
e 93 302 20.0
e 93 266 44.0
e 93 313 21.0
e 93 95 11.0
e 93 13 6.0
e 93 281 88.0
e 93 117 35.0
e 93 25 18.0
e 93 144 7.0
e 93 59 99.0
e 93 123 11.0
e 93 242 81.0
e 93 124 25.0
e 93 259 13.0
e 93 56 77.0
e 94 195 98.0
e 94 19 57.0
e 94 43 41.0
e 94 8 6.0
e 94 312 31.0
e 94 305 19.0
e 94 246 36.0
e 94 24 4.0
e 94 306 71.0
e 94 5 36.0
e 94 122 39.0
e 94 2 96.0
e 94 254 91.0
e 94 77 91.0
e 94 241 61.0
e 94 171 84.0
e 94 191 51.0
e 94 258 25.0
e 94 212 60.0
e 94 9 19.0
e 94 90 13.0
e 94 101 100.0
e 94 44 18.0
e 94 277 99.0
e 94 239 99.0
e 94 106 3.0
e 97 96 1.0
e 98 315 86.0
e 98 117 18.0
e 98 45 17.0
e 98 33 58.0
e 98 94 61.0
e 98 101 2.0
e 98 64 79.0
e 98 52 34.0
e 98 285 32.0
e 98 289 74.0
e 98 213 11.0
e 98 40 38.0
e 98 8 78.0
e 98 95 99.0
e 98 281 83.0
e 98 141 74.0
e 98 78 93.0
e 98 243 67.0
e 98 37 87.0
e 98 70 30.0
e 98 300 32.0
e 98 307 17.0
e 98 269 8.0
e 98 258 57.0
e 98 0 44.0
e 98 75 88.0
e 98 218 37.0
e 99 282 1.0
e 100 200 2.0
e 100 81 5.0
e 102 317 65.0
e 102 146 14.0
e 102 296 21.0
e 102 244 99.0
e 102 180 62.0
e 102 89 47.0
e 102 234 23.0
e 102 293 41.0
e 102 17 52.0
e 102 63 17.0
e 102 50 76.0
e 102 285 59.0
e 102 201 31.0
e 102 241 5.0
e 102 226 83.0
e 102 42 77.0
e 102 287 40.0
e 102 168 23.0
e 102 6 39.0
e 102 151 21.0
e 102 216 77.0
e 102 2 20.0
e 102 311 10.0
e 102 221 88.0
e 102 20 38.0
e 102 197 7.0
e 103 38 5.0
e 104 195 5.0
e 104 282 2.0
e 104 42 3.0
e 104 138 2.0
e 105 201 81.0
e 105 184 90.0
e 105 151 100.0
e 105 57 51.0
e 105 255 50.0
e 105 195 21.0
e 105 278 63.0
e 105 55 57.0
e 105 141 54.0
e 105 62 44.0
e 105 276 14.0
e 105 238 85.0
e 105 196 33.0
e 105 182 58.0
e 105 306 53.0
e 105 99 8.0
e 105 300 88.0
e 105 64 30.0
e 105 176 56.0
e 105 5 41.0
e 105 285 22.0
e 105 2 37.0
e 105 7 95.0
e 105 8 47.0
e 105 243 80.0
e 112 139 6.0
e 115 181 3.0
e 115 3 6.0
e 115 312 11.0
e 115 236 6.0
e 115 250 13.0
e 115 5 1.0
e 116 18 77.0
e 116 192 69.0
e 116 15 91.0
e 116 193 67.0
e 116 264 25.0
e 116 43 16.0
e 116 62 100.0
e 116 49 24.0
e 116 246 52.0
e 116 145 1.0
e 116 12 32.0
e 116 71 46.0
e 116 209 96.0
e 116 253 70.0
e 116 76 28.0
e 116 232 52.0
e 116 317 12.0
e 116 19 1.0
e 116 248 68.0
e 116 48 12.0
e 116 80 65.0
e 116 96 71.0
e 116 7 59.0
e 116 28 77.0
e 116 213 88.0
e 116 95 93.0
e 119 153 2.0
e 120 133 5.0
e 120 47 6.0
e 125 20 1.0
e 126 122 3.0
e 127 32 3.0
e 129 47 11.0
e 129 87 51.0
e 129 172 8.0
e 131 252 2.0
e 134 178 19.0
e 134 253 14.0
e 134 92 8.0
e 134 275 21.0
e 134 82 12.0
e 134 89 19.0
e 135 141 8.0
e 135 144 5.0
e 135 94 47.0
e 135 104 3.0
e 140 312 2.0
e 143 273 1.0
e 144 48 4.0
e 144 17 8.0
e 146 222 2.0
e 146 134 14.0
e 146 28 11.0
e 147 222 6.0
e 148 296 52.0
e 148 79 53.0
e 148 153 66.0
e 148 65 1.0
e 148 122 79.0
e 148 112 26.0
e 148 128 76.0
e 148 133 97.0
e 148 292 24.0
e 148 203 21.0
e 148 7 51.0
e 148 138 85.0
e 148 252 69.0
e 148 59 57.0
e 148 243 70.0
e 148 239 14.0
e 148 46 60.0
e 148 285 3.0
e 148 199 89.0
e 148 301 38.0
e 148 64 69.0
e 148 66 67.0
e 148 202 61.0
e 148 71 61.0
e 148 93 62.0
e 148 208 1.0
e 148 224 79.0
e 149 38 15.0
e 149 287 29.0
e 149 245 25.0
e 149 247 68.0
e 149 147 83.0
e 149 18 31.0
e 149 244 36.0
e 149 235 4.0
e 149 290 14.0
e 149 28 8.0
e 149 289 3.0
e 149 112 32.0
e 149 190 90.0
e 149 9 92.0
e 149 184 43.0
e 149 122 31.0
e 149 108 69.0
e 149 257 98.0
e 149 96 4.0
e 149 220 1.0
e 149 1 60.0
e 149 318 58.0
e 149 14 3.0
e 149 221 71.0
e 149 213 7.0
e 156 202 78.0
e 156 27 100.0
e 156 80 25.0
e 156 43 18.0
e 156 306 1.0
e 156 218 69.0
e 156 252 97.0
e 156 214 65.0
e 156 244 94.0
e 156 150 44.0
e 156 200 69.0
e 156 32 63.0
e 156 9 49.0
e 156 243 43.0
e 156 124 88.0
e 156 37 91.0
e 156 245 7.0
e 156 59 26.0
e 156 44 41.0
e 156 268 45.0
e 156 212 13.0
e 156 168 90.0
e 156 20 41.0
e 156 253 7.0
e 156 179 74.0
e 156 293 96.0
e 158 127 9.0
e 158 59 9.0
e 158 212 3.0
e 158 33 3.0
e 159 304 6.0
e 160 177 7.0
e 160 99 5.0
e 161 54 6.0
e 161 270 10.0
e 162 189 9.0
e 162 196 7.0
e 162 22 1.0
e 164 65 11.0
e 164 104 9.0
e 164 135 9.0
e 164 274 3.0
e 173 271 2.0
e 173 0 26.0
e 175 50 53.0
e 175 71 89.0
e 175 160 46.0
e 175 180 85.0
e 175 101 90.0
e 175 69 98.0
e 175 178 55.0
e 175 197 33.0
e 175 61 73.0
e 175 128 28.0
e 175 299 59.0
e 175 284 98.0
e 175 20 66.0
e 175 198 30.0
e 175 98 40.0
e 175 125 20.0
e 175 210 69.0
e 175 80 95.0
e 175 194 7.0
e 175 215 81.0
e 175 121 42.0
e 175 127 4.0
e 175 48 77.0
e 175 115 30.0
e 175 188 87.0
e 175 116 55.0
e 183 203 1.0
e 183 146 4.0
e 185 113 41.0
e 185 175 67.0
e 185 192 64.0
e 185 30 49.0
e 185 71 41.0
e 185 296 39.0
e 185 57 49.0
e 185 229 37.0
e 185 147 89.0
e 185 141 93.0
e 185 32 90.0
e 185 311 7.0
e 185 83 47.0
e 185 195 57.0
e 185 266 84.0
e 185 15 52.0
e 185 35 79.0
e 185 171 98.0
e 185 50 1.0
e 185 179 64.0
e 185 33 74.0
e 185 162 16.0
e 186 102 92.0
e 187 70 2.0
e 187 207 2.0
e 191 76 93.0
e 191 87 83.0
e 191 265 67.0
e 191 284 86.0
e 191 290 93.0
e 191 246 82.0
e 191 281 36.0
e 191 313 84.0
e 191 36 52.0
e 191 91 43.0
e 191 43 68.0
e 191 219 93.0
e 191 114 70.0
e 191 24 62.0
e 191 197 55.0
e 191 122 78.0
e 191 210 66.0
e 191 292 22.0
e 191 60 13.0
e 191 228 93.0
e 191 192 92.0
e 191 28 79.0
e 191 22 30.0
e 191 3 91.0
e 191 30 74.0
e 191 258 18.0
e 192 135 11.0
e 192 12 14.0
e 192 312 24.0
e 192 305 16.0
e 193 53 5.0
e 193 140 5.0
e 193 70 2.0
e 197 41 33.0
e 197 3 23.0
e 197 205 80.0
e 197 275 1.0
e 197 262 59.0
e 197 304 75.0
e 197 274 43.0
e 197 98 24.0
e 197 180 97.0
e 197 67 35.0
e 197 117 53.0
e 197 115 22.0
e 197 158 98.0
e 197 125 2.0
e 197 198 78.0
e 197 281 100.0
e 197 223 72.0
e 197 99 4.0
e 197 83 25.0
e 197 190 19.0
e 197 71 54.0
e 197 208 67.0
e 204 6 64.0
e 204 104 73.0
e 204 187 31.0
e 204 198 78.0
e 204 157 33.0
e 204 249 46.0
e 204 7 95.0
e 204 13 56.0
e 204 263 41.0
e 204 282 36.0
e 204 280 99.0
e 204 121 46.0
e 204 118 60.0
e 204 51 68.0
e 204 273 53.0
e 204 243 9.0
e 204 8 65.0
e 204 226 64.0
e 204 203 89.0
e 204 34 61.0
e 204 270 15.0
e 204 123 87.0
e 204 242 70.0
e 204 129 90.0
e 204 44 90.0
e 204 298 35.0
e 208 287 13.0
e 208 199 74.0
e 208 313 67.0
e 208 222 90.0
e 208 146 9.0
e 208 40 78.0
e 208 35 48.0
e 208 9 42.0
e 208 12 12.0
e 208 256 60.0
e 208 210 54.0
e 208 247 69.0
e 208 57 39.0
e 208 260 49.0
e 208 252 34.0
e 208 217 40.0
e 208 101 21.0
e 208 311 10.0
e 208 293 56.0
e 208 126 17.0
e 208 203 53.0
e 208 299 13.0
e 208 308 78.0
e 208 103 15.0
e 208 76 2.0
e 210 80 68.0
e 210 222 96.0
e 210 230 56.0
e 210 95 33.0
e 210 44 79.0
e 210 10 97.0
e 210 32 99.0
e 210 9 13.0
e 210 309 89.0
e 210 156 17.0
e 210 7 77.0
e 210 179 47.0
e 210 23 90.0
e 210 265 66.0
e 210 127 46.0
e 210 316 67.0
e 210 209 36.0
e 210 97 62.0
e 210 137 94.0
e 210 247 20.0
e 210 2 1.0
e 210 123 28.0
e 210 283 84.0
e 211 229 10.0
e 212 176 3.0
e 212 45 15.0
e 214 274 49.0
e 214 105 36.0
e 214 15 1.0
e 214 303 100.0
e 214 175 94.0
e 214 3 74.0
e 214 183 1.0
e 214 23 50.0
e 214 6 79.0
e 214 255 100.0
e 214 210 47.0
e 214 243 57.0
e 214 160 85.0
e 214 91 20.0
e 214 170 68.0
e 214 249 1.0
e 214 265 66.0
e 214 104 28.0
e 214 296 45.0
e 214 7 19.0
e 214 157 55.0
e 214 268 76.0
e 214 24 97.0
e 214 67 4.0
e 216 240 80.0
e 216 169 72.0
e 216 283 27.0
e 216 223 100.0
e 216 301 25.0
e 216 176 13.0
e 216 185 70.0
e 216 61 25.0
e 216 171 56.0
e 216 222 48.0
e 216 66 79.0
e 216 110 54.0
e 216 206 67.0
e 216 111 66.0
e 216 4 7.0
e 216 80 59.0
e 216 51 5.0
e 216 158 58.0
e 216 19 19.0
e 216 148 93.0
e 216 128 70.0
e 216 103 29.0
e 216 54 5.0
e 223 303 11.0
e 223 36 2.0
e 223 52 12.0
e 223 123 20.0
e 225 150 2.0
e 227 244 1.0
e 229 93 1.0
e 231 146 24.0
e 231 110 71.0
e 231 170 95.0
e 231 10 34.0
e 231 213 61.0
e 231 234 59.0
e 231 175 63.0
e 231 76 72.0
e 231 84 20.0
e 231 296 28.0
e 231 147 33.0
e 231 120 31.0
e 231 245 20.0
e 231 301 10.0
e 231 46 47.0
e 231 214 33.0
e 231 261 25.0
e 231 44 99.0
e 231 98 47.0
e 231 36 65.0
e 231 249 15.0
e 231 237 20.0
e 231 96 23.0
e 231 0 70.0
e 231 182 57.0
e 231 59 76.0
e 241 286 14.0
e 241 317 22.0
e 241 257 39.0
e 241 29 39.0
e 241 177 38.0
e 241 118 10.0
e 241 39 47.0
e 241 24 36.0
e 241 11 65.0
e 241 145 69.0
e 241 21 10.0
e 241 249 88.0
e 241 160 92.0
e 241 170 88.0
e 241 225 30.0
e 241 56 69.0
e 241 119 75.0
e 241 12 24.0
e 241 178 53.0
e 241 91 76.0
e 241 139 28.0
e 241 248 19.0
e 241 138 12.0
e 241 222 77.0
e 241 107 59.0
e 242 110 47.0
e 242 81 80.0
e 242 163 98.0
e 242 304 56.0
e 242 194 42.0
e 242 286 88.0
e 242 206 51.0
e 242 5 12.0
e 242 88 87.0
e 242 248 78.0
e 242 26 88.0
e 242 272 47.0
e 242 60 73.0
e 242 68 36.0
e 242 249 72.0
e 242 301 75.0
e 242 16 39.0
e 242 61 77.0
e 242 115 35.0
e 242 223 93.0
e 242 281 13.0
e 242 32 7.0
e 243 54 15.0
e 243 23 7.0
e 243 265 40.0
e 243 53 33.0
e 243 80 49.0
e 243 96 13.0
e 243 106 8.0
e 248 90 27.0
e 248 146 82.0
e 248 256 97.0
e 248 91 78.0
e 248 48 76.0
e 248 117 56.0
e 248 152 5.0
e 248 236 10.0
e 248 207 60.0
e 248 120 55.0
e 248 162 71.0
e 248 302 52.0
e 248 301 5.0
e 248 69 50.0
e 248 122 66.0
e 248 108 24.0
e 248 210 15.0
e 248 252 65.0
e 248 149 96.0
e 248 272 55.0
e 248 274 32.0
e 248 199 32.0
e 248 259 95.0
e 248 238 34.0
e 249 136 28.0
e 249 273 76.0
e 249 13 70.0
e 249 167 29.0
e 249 63 26.0
e 249 125 91.0
e 249 188 3.0
e 249 42 12.0
e 249 227 59.0
e 249 60 57.0
e 249 305 98.0
e 249 232 39.0
e 249 178 88.0
e 249 107 1.0
e 249 233 80.0
e 249 303 25.0
e 249 91 77.0
e 249 215 26.0
e 249 289 89.0
e 249 276 59.0
e 249 234 2.0
e 249 266 21.0
e 250 117 19.0
e 250 5 8.0
e 250 122 8.0
e 253 54 69.0
e 253 24 43.0
e 253 57 2.0
e 253 270 79.0
e 253 230 70.0
e 253 155 34.0
e 253 89 37.0
e 253 37 83.0
e 253 102 9.0
e 253 39 43.0
e 253 280 26.0
e 253 275 25.0
e 253 157 17.0
e 253 65 96.0
e 253 14 76.0
e 253 60 9.0
e 253 207 19.0
e 253 91 18.0
e 253 140 15.0
e 253 133 52.0
e 253 246 71.0
e 253 30 95.0
e 253 40 60.0
e 260 35 2.0
e 260 50 10.0
e 262 257 30.0
e 262 64 48.0
e 262 202 85.0
e 262 196 13.0
e 262 263 34.0
e 262 46 48.0
e 262 58 4.0
e 262 15 71.0
e 262 297 86.0
e 262 311 25.0
e 262 294 91.0
e 262 85 52.0
e 262 65 48.0
e 262 81 7.0
e 262 186 95.0
e 262 248 41.0
e 262 148 52.0
e 262 88 8.0
e 262 151 62.0
e 262 165 20.0
e 262 287 12.0
e 262 175 58.0
e 262 230 16.0
e 262 74 86.0
e 262 123 10.0
e 262 96 94.0
e 264 304 4.0
e 264 218 11.0
e 264 82 10.0
e 267 285 7.0
e 267 72 5.0
e 267 9 53.0
e 268 301 22.0
e 268 84 30.0
e 268 237 9.0
e 268 111 14.0
e 268 215 10.0
e 272 169 4.0
e 279 54 3.0
e 280 51 1.0
e 284 126 8.0
e 284 1 26.0
e 284 49 28.0
e 284 25 96.0
e 284 226 80.0
e 284 10 72.0
e 284 143 17.0
e 284 118 25.0
e 284 273 54.0
e 284 26 23.0
e 284 228 65.0
e 284 170 42.0
e 284 12 54.0
e 284 176 13.0
e 284 240 31.0
e 284 202 86.0
e 284 140 43.0
e 284 229 92.0
e 284 205 16.0
e 284 277 70.0
e 284 217 80.0
e 284 150 99.0
e 284 142 16.0
e 284 299 14.0
e 286 299 29.0
e 286 95 46.0
e 286 269 13.0
e 286 63 8.0
e 286 194 30.0
e 286 212 15.0
e 286 301 5.0
e 286 312 46.0
e 286 280 7.0
e 286 58 22.0
e 286 204 65.0
e 288 10 4.0
e 288 224 12.0
e 288 33 23.0
e 288 65 1.0
e 288 58 13.0
e 288 1 3.0
e 288 61 13.0
e 291 136 4.0
e 291 297 19.0
e 291 53 20.0
e 291 134 20.0
e 291 11 17.0
e 291 34 4.0
e 292 115 57.0
e 292 303 27.0
e 292 277 48.0
e 292 36 96.0
e 292 13 74.0
e 292 62 92.0
e 292 73 47.0
e 292 270 99.0
e 292 57 65.0
e 292 26 37.0
e 292 116 35.0
e 292 207 78.0
e 292 155 84.0
e 292 92 63.0
e 292 77 8.0
e 292 109 30.0
e 292 123 51.0
e 292 243 55.0
e 292 179 75.0
e 292 63 48.0
e 292 253 63.0
e 292 228 27.0
e 292 304 11.0
e 292 118 9.0
e 292 159 100.0
e 294 295 12.0
e 294 57 14.0
e 294 310 11.0
e 294 69 18.0
e 294 224 9.0
e 298 198 2.0
e 298 227 4.0
e 298 33 9.0
e 309 2 4.0
e 309 137 1.0
e 309 76 20.0
e 309 31 5.0
e 309 254 8.0
e 309 88 9.0
e 314 119 8.0
e 314 21 22.0
e 314 151 4.0
e 314 210 59.0
e 316 274 62.0
e 316 158 100.0
e 316 281 4.0
e 316 242 91.0
e 316 115 18.0
e 316 44 94.0
e 316 107 48.0
e 316 298 76.0
e 316 40 91.0
e 316 240 64.0
e 316 106 6.0
e 316 79 47.0
e 316 267 10.0
e 316 25 67.0
e 316 275 10.0
e 316 10 43.0
e 316 18 62.0
e 316 65 81.0
e 316 222 73.0
e 316 45 67.0
e 316 276 91.0
e 316 132 16.0
e 316 41 9.0
e 316 129 52.0
e 316 161 82.0
e 316 156 98.0
e 319 33 3.0
e 319 159 5.0
